
se = 40; % nombre de sessions
gr = 20; % nombre de grups de treball
cl = 7; % nombre de slots
minPapersPerSlot = 3; % minim nombre d'articles per sessio i slot
maxSesionsPar = 14; % maxim nombre de sessions paraleles

npMax = [4, 3, 4, 5, 6, 3, 4]; % nombre maxim de papers per slot

np = [12, 5, 7, 3, 4, 13, 11, 8, 3, 3, 3, 5, 10, 8, 14, 10, 4, 5, 4, 9, 3, 8, 3, 15, 4, 3, 16, 8, 16, 9, 5, 3, 10, 3, 4, 5, 3, 3, 7, 15]; % nombre de papers acceptats a cada sessio

WG = [ {1,2}, {3}, {}, {4}, {5}, {6}, {}, {7}, {}, {8}, {}, {}, {}, {}, {9,10,11}, {12,13,14}, {15}, {16}, {17}, {18,19}, {20}, {}, {}, {}, {1}, {2}, {3,4}, {5,6}, {7}, {}, {8}, {9}, {}, {10}, {}, {11}, {12}, {13}, {14}, {} ]; % grups per sessio

